-29 38 -8 41 -15 -40 -34 -15 0
-29 38 41 -15 -46 -40 -15 0
-32 40 42 -10 24 -39 -15 0
-29 8 40 24 28 -15 0
38 40 41 42 -15 -8 28 -34 -15 0
38 40 41 -15 18 -8 28 -15 0
38 41 -15 -46 24 28 -15 0
38 41 -15 -46 28 -15 0
-24 41 -15 -46 -38 -15 0
9 -18 -15 24 -38 -15 0
41 -15 -40 24 -38 28 -15 0
-15 0
-32 8 10 15 0
-32 -10 6 15 15 0
38 8 -24 40 15 15 0
38 40 -24 15 28 15 0
38 -24 47 -46 19 -8 28 15 0
38 -24 15 -46 19 28 15 0
-29 38 15 -16 19 24 28 15 0
-46 28 38 15 15 0
40 12 15 -13 -38 15 0
41 15 -13 -38 28 15 0
41 15 -16 -40 24 -38 28 15 0
15 0
0
